70
1 0 87
2 0 95
2 1 60
3 0 100
3 1 34
3 2 26
4 0 58
4 1 56
4 2 94
4 3 74
5 0 95
5 1 36
5 2 30
5 3 97
5 4 22
6 0 59
6 1 26
6 2 62
6 3 50
6 4 79
6 5 10
7 0 82
7 1 57
7 2 65
7 3 25
7 4 13
7 5 13
7 6 66
8 0 13
8 1 1
8 2 75
8 3 37
8 4 5
8 5 64
8 6 78
8 7 38
9 0 48
9 1 48
9 2 54
9 3 56
9 4 97
9 5 5
9 6 18
9 7 1
9 8 52
10 0 52
10 1 27
10 2 69
10 3 26
10 4 38
10 5 96
10 6 81
10 7 80
10 8 25
10 9 19
11 0 48
11 1 41
11 2 40
11 3 46
11 4 4
11 5 99
11 6 72
11 7 90
11 8 18
11 9 65
11 10 15
12 0 88
12 1 73
12 2 9
12 3 83
12 4 29
12 5 82
12 6 20
12 7 52
12 8 18
12 9 66
12 10 68
12 11 85
13 0 55
13 1 17
13 2 51
13 3 72
13 4 30
13 5 31
13 6 48
13 7 80
13 8 73
13 9 71
13 10 30
13 11 84
13 12 13
14 0 6
14 1 87
14 2 42
14 3 25
14 4 25
14 5 72
14 6 20
14 7 77
14 8 32
14 9 81
14 10 98
14 11 2
14 12 63
14 13 12
15 0 89
15 1 61
15 2 93
15 3 69
15 4 71
15 5 62
15 6 3
15 7 9
15 8 7
15 9 67
15 10 49
15 11 53
15 12 6
15 13 90
15 14 36
16 0 1
16 1 46
16 2 70
16 3 95
16 4 17
16 5 57
16 6 74
16 7 23
16 8 91
16 9 55
16 10 61
16 11 13
16 12 80
16 13 55
16 14 25
16 15 10
17 0 89
17 1 7
17 2 68
17 3 53
17 4 46
17 5 42
17 6 9
17 7 93
17 8 75
17 9 15
17 10 1
17 11 100
17 12 88
17 13 85
17 14 25
17 15 97
17 16 26
18 0 69
18 1 80
18 2 80
18 3 34
18 4 51
18 5 90
18 6 17
18 7 57
18 8 50
18 9 92
18 10 41
18 11 77
18 12 68
18 13 79
18 14 63
18 15 33
18 16 65
18 17 21
19 0 82
19 1 97
19 2 45
19 3 65
19 4 71
19 5 95
19 6 48
19 7 14
19 8 55
19 9 5
19 10 74
19 11 15
19 12 20
19 13 50
19 14 91
19 15 18
19 16 9
19 17 89
19 18 96
20 0 87
20 1 9
20 2 75
20 3 45
20 4 55
20 5 16
20 6 2
20 7 54
20 8 85
20 9 46
20 10 99
20 11 44
20 12 61
20 13 30
20 14 29
20 15 93
20 16 14
20 17 94
20 18 85
20 19 95
21 0 72
21 1 35
21 2 11
21 3 61
21 4 87
21 5 27
21 6 87
21 7 99
21 8 71
21 9 26
21 10 47
21 11 60
21 12 42
21 13 51
21 14 25
21 15 42
21 16 76
21 17 72
21 18 46
21 19 85
21 20 2
22 0 23
22 1 16
22 2 1
22 3 98
22 4 18
22 5 63
22 6 18
22 7 54
22 8 46
22 9 36
22 10 34
22 11 36
22 12 71
22 13 81
22 14 17
22 15 61
22 16 59
22 17 31
22 18 84
22 19 43
22 20 16
22 21 84
23 0 53
23 1 100
23 2 96
23 3 60
23 4 56
23 5 22
23 6 24
23 7 65
23 8 42
23 9 34
23 10 47
23 11 90
23 12 20
23 13 6
23 14 89
23 15 32
23 16 24
23 17 1
23 18 90
23 19 18
23 20 84
23 21 58
23 22 53
24 0 54
24 1 48
24 2 49
24 3 22
24 4 53
24 5 88
24 6 57
24 7 66
24 8 93
24 9 87
24 10 76
24 11 53
24 12 17
24 13 73
24 14 9
24 15 26
24 16 82
24 17 69
24 18 29
24 19 15
24 20 7
24 21 69
24 22 34
24 23 60
25 0 91
25 1 43
25 2 95
25 3 20
25 4 82
25 5 59
25 6 89
25 7 87
25 8 39
25 9 48
25 10 60
25 11 41
25 12 6
25 13 65
25 14 62
25 15 14
25 16 89
25 17 24
25 18 59
25 19 42
25 20 13
25 21 99
25 22 98
25 23 22
25 24 91
26 0 26
26 1 84
26 2 20
26 3 39
26 4 48
26 5 4
26 6 78
26 7 14
26 8 84
26 9 100
26 10 16
26 11 64
26 12 21
26 13 80
26 14 43
26 15 15
26 16 55
26 17 8
26 18 17
26 19 28
26 20 27
26 21 30
26 22 4
26 23 8
26 24 33
26 25 13
27 0 40
27 1 53
27 2 14
27 3 5
27 4 99
27 5 61
27 6 41
27 7 50
27 8 8
27 9 43
27 10 46
27 11 16
27 12 72
27 13 1
27 14 86
27 15 7
27 16 95
27 17 88
27 18 32
27 19 84
27 20 13
27 21 41
27 22 2
27 23 5
27 24 76
27 25 47
27 26 2
28 0 63
28 1 37
28 2 13
28 3 41
28 4 83
28 5 44
28 6 30
28 7 28
28 8 98
28 9 42
28 10 38
28 11 64
28 12 33
28 13 25
28 14 65
28 15 92
28 16 50
28 17 4
28 18 80
28 19 77
28 20 39
28 21 67
28 22 68
28 23 10
28 24 62
28 25 62
28 26 50
28 27 69
29 0 75
29 1 25
29 2 80
29 3 84
29 4 97
29 5 26
29 6 99
29 7 86
29 8 97
29 9 15
29 10 30
29 11 28
29 12 6
29 13 82
29 14 47
29 15 19
29 16 96
29 17 75
29 18 48
29 19 11
29 20 71
29 21 26
29 22 9
29 23 21
29 24 55
29 25 87
29 26 11
29 27 78
29 28 86
30 0 80
30 1 60
30 2 37
30 3 49
30 4 2
30 5 43
30 6 91
30 7 2
30 8 48
30 9 89
30 10 72
30 11 67
30 12 37
30 13 33
30 14 38
30 15 17
30 16 58
30 17 96
30 18 59
30 19 66
30 20 71
30 21 27
30 22 73
30 23 32
30 24 30
30 25 82
30 26 72
30 27 48
30 28 5
30 29 24
31 0 22
31 1 37
31 2 37
31 3 73
31 4 44
31 5 74
31 6 33
31 7 45
31 8 10
31 9 86
31 10 99
31 11 45
31 12 20
31 13 96
31 14 69
31 15 21
31 16 67
31 17 86
31 18 61
31 19 82
31 20 18
31 21 34
31 22 89
31 23 39
31 24 50
31 25 73
31 26 1
31 27 28
31 28 32
31 29 54
31 30 26
32 0 10
32 1 39
32 2 17
32 3 36
32 4 78
32 5 34
32 6 10
32 7 82
32 8 99
32 9 59
32 10 1
32 11 45
32 12 67
32 13 21
32 14 79
32 15 96
32 16 74
32 17 66
32 18 32
32 19 91
32 20 90
32 21 64
32 22 57
32 23 19
32 24 23
32 25 65
32 26 30
32 27 75
32 28 18
32 29 97
32 30 52
32 31 54
33 0 79
33 1 95
33 2 43
33 3 65
33 4 57
33 5 11
33 6 38
33 7 6
33 8 20
33 9 32
33 10 42
33 11 74
33 12 97
33 13 92
33 14 4
33 15 84
33 16 79
33 17 77
33 18 49
33 19 14
33 20 97
33 21 51
33 22 65
33 23 22
33 24 23
33 25 50
33 26 36
33 27 84
33 28 66
33 29 14
33 30 69
33 31 55
33 32 47
34 0 73
34 1 55
34 2 51
34 3 86
34 4 95
34 5 63
34 6 6
34 7 33
34 8 60
34 9 52
34 10 54
34 11 22
34 12 25
34 13 61
34 14 32
34 15 30
34 16 89
34 17 100
34 18 6
34 19 77
34 20 77
34 21 63
34 22 79
34 23 92
34 24 96
34 25 20
34 26 17
34 27 32
34 28 37
34 29 80
34 30 1
34 31 36
34 32 32
34 33 20
35 0 12
35 1 35
35 2 72
35 3 15
35 4 83
35 5 71
35 6 57
35 7 27
35 8 83
35 9 76
35 10 45
35 11 39
35 12 27
35 13 33
35 14 93
35 15 30
35 16 16
35 17 2
35 18 31
35 19 31
35 20 48
35 21 94
35 22 5
35 23 17
35 24 67
35 25 27
35 26 74
35 27 15
35 28 30
35 29 85
35 30 55
35 31 33
35 32 13
35 33 80
35 34 47
36 0 51
36 1 88
36 2 80
36 3 79
36 4 14
36 5 39
36 6 47
36 7 58
36 8 31
36 9 95
36 10 7
36 11 28
36 12 59
36 13 11
36 14 48
36 15 48
36 16 31
36 17 14
36 18 11
36 19 46
36 20 67
36 21 90
36 22 15
36 23 42
36 24 58
36 25 96
36 26 46
36 27 5
36 28 19
36 29 15
36 30 98
36 31 1
36 32 61
36 33 79
36 34 25
36 35 71
37 0 22
37 1 39
37 2 75
37 3 8
37 4 41
37 5 56
37 6 88
37 7 44
37 8 93
37 9 36
37 10 95
37 11 64
37 12 7
37 13 44
37 14 39
37 15 9
37 16 19
37 17 52
37 18 14
37 19 25
37 20 54
37 21 22
37 22 91
37 23 77
37 24 39
37 25 31
37 26 71
37 27 40
37 28 73
37 29 70
37 30 88
37 31 28
37 32 16
37 33 90
37 34 58
37 35 29
37 36 80
38 0 75
38 1 36
38 2 44
38 3 25
38 4 61
38 5 30
38 6 69
38 7 93
38 8 38
38 9 98
38 10 53
38 11 33
38 12 86
38 13 2
38 14 20
38 15 10
38 16 54
38 17 14
38 18 51
38 19 92
38 20 79
38 21 93
38 22 47
38 23 48
38 24 87
38 25 77
38 26 40
38 27 26
38 28 40
38 29 56
38 30 96
38 31 76
38 32 16
38 33 30
38 34 48
38 35 36
38 36 39
38 37 54
39 0 59
39 1 8
39 2 85
39 3 33
39 4 65
39 5 85
39 6 44
39 7 22
39 8 95
39 9 100
39 10 13
39 11 34
39 12 46
39 13 18
39 14 33
39 15 72
39 16 43
39 17 93
39 18 19
39 19 22
39 20 50
39 21 51
39 22 33
39 23 92
39 24 81
39 25 73
39 26 98
39 27 79
39 28 39
39 29 99
39 30 54
39 31 81
39 32 86
39 33 68
39 34 14
39 35 13
39 36 6
39 37 70
39 38 53
40 0 78
40 1 39
40 2 63
40 3 51
40 4 99
40 5 72
40 6 99
40 7 79
40 8 30
40 9 30
40 10 57
40 11 73
40 12 85
40 13 6
40 14 57
40 15 63
40 16 56
40 17 6
40 18 36
40 19 42
40 20 20
40 21 18
40 22 83
40 23 81
40 24 44
40 25 18
40 26 84
40 27 48
40 28 42
40 29 75
40 30 2
40 31 61
40 32 45
40 33 19
40 34 13
40 35 1
40 36 86
40 37 86
40 38 68
40 39 66
41 0 10
41 1 52
41 2 37
41 3 27
41 4 59
41 5 15
41 6 85
41 7 25
41 8 7
41 9 94
41 10 51
41 11 30
41 12 23
41 13 57
41 14 58
41 15 33
41 16 94
41 17 88
41 18 64
41 19 56
41 20 53
41 21 49
41 22 24
41 23 97
41 24 70
41 25 28
41 26 39
41 27 29
41 28 10
41 29 40
41 30 5
41 31 61
41 32 75
41 33 44
41 34 82
41 35 81
41 36 73
41 37 93
41 38 50
41 39 70
41 40 79
42 0 24
42 1 34
42 2 54
42 3 95
42 4 55
42 5 93
42 6 17
42 7 10
42 8 45
42 9 21
42 10 10
42 11 21
42 12 48
42 13 2
42 14 22
42 15 73
42 16 43
42 17 7
42 18 94
42 19 21
42 20 39
42 21 46
42 22 98
42 23 17
42 24 85
42 25 92
42 26 13
42 27 94
42 28 23
42 29 48
42 30 56
42 31 82
42 32 83
42 33 28
42 34 74
42 35 83
42 36 85
42 37 63
42 38 86
42 39 95
42 40 13
42 41 73
43 0 32
43 1 56
43 2 80
43 3 35
43 4 81
43 5 54
43 6 76
43 7 63
43 8 92
43 9 10
43 10 91
43 11 81
43 12 38
43 13 54
43 14 53
43 15 27
43 16 30
43 17 30
43 18 4
43 19 57
43 20 4
43 21 5
43 22 19
43 23 9
43 24 65
43 25 73
43 26 53
43 27 53
43 28 94
43 29 84
43 30 39
43 31 45
43 32 51
43 33 16
43 34 98
43 35 56
43 36 57
43 37 92
43 38 24
43 39 41
43 40 16
43 41 14
43 42 63
44 0 62
44 1 16
44 2 37
44 3 79
44 4 6
44 5 21
44 6 35
44 7 4
44 8 41
44 9 47
44 10 18
44 11 96
44 12 92
44 13 75
44 14 1
44 15 48
44 16 55
44 17 46
44 18 44
44 19 48
44 20 75
44 21 57
44 22 1
44 23 50
44 24 36
44 25 25
44 26 51
44 27 31
44 28 58
44 29 7
44 30 14
44 31 29
44 32 2
44 33 95
44 34 51
44 35 98
44 36 11
44 37 14
44 38 10
44 39 18
44 40 51
44 41 88
44 42 79
44 43 46
45 0 26
45 1 73
45 2 48
45 3 97
45 4 80
45 5 54
45 6 80
45 7 97
45 8 15
45 9 51
45 10 62
45 11 39
45 12 83
45 13 2
45 14 83
45 15 30
45 16 25
45 17 5
45 18 44
45 19 30
45 20 82
45 21 25
45 22 20
45 23 100
45 24 91
45 25 23
45 26 6
45 27 15
45 28 31
45 29 50
45 30 35
45 31 20
45 32 6
45 33 11
45 34 48
45 35 16
45 36 53
45 37 89
45 38 36
45 39 27
45 40 36
45 41 99
45 42 4
45 43 66
45 44 51
46 0 6
46 1 29
46 2 3
46 3 45
46 4 5
46 5 90
46 6 22
46 7 50
46 8 87
46 9 8
46 10 88
46 11 62
46 12 5
46 13 30
46 14 96
46 15 20
46 16 31
46 17 24
46 18 45
46 19 70
46 20 66
46 21 90
46 22 65
46 23 23
46 24 33
46 25 97
46 26 16
46 27 30
46 28 88
46 29 85
46 30 93
46 31 40
46 32 1
46 33 24
46 34 36
46 35 18
46 36 10
46 37 93
46 38 31
46 39 28
46 40 52
46 41 25
46 42 31
46 43 17
46 44 13
46 45 45
47 0 44
47 1 55
47 2 53
47 3 78
47 4 74
47 5 7
47 6 2
47 7 21
47 8 100
47 9 60
47 10 36
47 11 96
47 12 32
47 13 11
47 14 76
47 15 24
47 16 87
47 17 100
47 18 58
47 19 1
47 20 63
47 21 45
47 22 81
47 23 57
47 24 7
47 25 13
47 26 35
47 27 27
47 28 10
47 29 22
47 30 49
47 31 74
47 32 78
47 33 72
47 34 21
47 35 29
47 36 41
47 37 55
47 38 18
47 39 49
47 40 25
47 41 62
47 42 64
47 43 15
47 44 87
47 45 23
47 46 46
48 0 1
48 1 83
48 2 31
48 3 3
48 4 90
48 5 30
48 6 30
48 7 94
48 8 45
48 9 74
48 10 78
48 11 43
48 12 22
48 13 81
48 14 21
48 15 15
48 16 6
48 17 6
48 18 15
48 19 72
48 20 9
48 21 14
48 22 8
48 23 5
48 24 45
48 25 49
48 26 57
48 27 56
48 28 87
48 29 91
48 30 40
48 31 58
48 32 59
48 33 28
48 34 93
48 35 73
48 36 27
48 37 40
48 38 81
48 39 92
48 40 87
48 41 86
48 42 82
48 43 34
48 44 69
48 45 19
48 46 42
48 47 70
49 0 92
49 1 80
49 2 33
49 3 30
49 4 56
49 5 45
49 6 17
49 7 95
49 8 50
49 9 36
49 10 7
49 11 73
49 12 1
49 13 3
49 14 67
49 15 6
49 16 13
49 17 39
49 18 2
49 19 67
49 20 51
49 21 10
49 22 17
49 23 35
49 24 84
49 25 81
49 26 65
49 27 64
49 28 86
49 29 80
49 30 97
49 31 77
49 32 56
49 33 46
49 34 85
49 35 57
49 36 14
49 37 30
49 38 94
49 39 17
49 40 72
49 41 59
49 42 8
49 43 57
49 44 4
49 45 83
49 46 49
49 47 65
49 48 47
50 0 55
50 1 36
50 2 99
50 3 13
50 4 23
50 5 71
50 6 58
50 7 6
50 8 29
50 9 57
50 10 46
50 11 51
50 12 46
50 13 88
50 14 64
50 15 95
50 16 100
50 17 46
50 18 11
50 19 39
50 20 54
50 21 15
50 22 48
50 23 96
50 24 51
50 25 97
50 26 79
50 27 4
50 28 50
50 29 69
50 30 51
50 31 18
50 32 92
50 33 40
50 34 56
50 35 74
50 36 83
50 37 88
50 38 22
50 39 100
50 40 92
50 41 78
50 42 98
50 43 5
50 44 83
50 45 5
50 46 72
50 47 81
50 48 39
50 49 4
51 0 91
51 1 99
51 2 49
51 3 24
51 4 71
51 5 82
51 6 63
51 7 54
51 8 96
51 9 75
51 10 32
51 11 53
51 12 67
51 13 64
51 14 92
51 15 26
51 16 42
51 17 12
51 18 65
51 19 35
51 20 66
51 21 91
51 22 72
51 23 42
51 24 3
51 25 53
51 26 93
51 27 35
51 28 8
51 29 63
51 30 14
51 31 72
51 32 99
51 33 82
51 34 47
51 35 35
51 36 19
51 37 70
51 38 12
51 39 4
51 40 99
51 41 56
51 42 16
51 43 74
51 44 64
51 45 1
51 46 79
51 47 79
51 48 42
51 49 22
51 50 68
52 0 98
52 1 60
52 2 84
52 3 65
52 4 60
52 5 52
52 6 71
52 7 66
52 8 62
52 9 100
52 10 77
52 11 87
52 12 81
52 13 88
52 14 92
52 15 32
52 16 34
52 17 40
52 18 82
52 19 37
52 20 20
52 21 73
52 22 61
52 23 10
52 24 53
52 25 87
52 26 30
52 27 13
52 28 55
52 29 65
52 30 22
52 31 74
52 32 91
52 33 62
52 34 71
52 35 16
52 36 45
52 37 7
52 38 9
52 39 35
52 40 72
52 41 51
52 42 39
52 43 78
52 44 91
52 45 13
52 46 60
52 47 92
52 48 86
52 49 37
52 50 28
52 51 53
53 0 29
53 1 43
53 2 75
53 3 86
53 4 64
53 5 32
53 6 37
53 7 41
53 8 92
53 9 4
53 10 53
53 11 94
53 12 54
53 13 65
53 14 29
53 15 71
53 16 11
53 17 49
53 18 89
53 19 28
53 20 52
53 21 87
53 22 57
53 23 22
53 24 91
53 25 93
53 26 42
53 27 75
53 28 33
53 29 34
53 30 6
53 31 100
53 32 10
53 33 33
53 34 60
53 35 39
53 36 36
53 37 98
53 38 1
53 39 49
53 40 5
53 41 87
53 42 87
53 43 23
53 44 59
53 45 57
53 46 28
53 47 31
53 48 82
53 49 30
53 50 14
53 51 20
53 52 99
54 0 18
54 1 30
54 2 24
54 3 2
54 4 53
54 5 22
54 6 40
54 7 1
54 8 20
54 9 7
54 10 1
54 11 4
54 12 14
54 13 60
54 14 39
54 15 57
54 16 40
54 17 91
54 18 21
54 19 97
54 20 29
54 21 24
54 22 97
54 23 11
54 24 68
54 25 31
54 26 1
54 27 88
54 28 32
54 29 70
54 30 90
54 31 18
54 32 85
54 33 51
54 34 6
54 35 80
54 36 85
54 37 18
54 38 11
54 39 2
54 40 5
54 41 17
54 42 10
54 43 10
54 44 64
54 45 100
54 46 86
54 47 76
54 48 23
54 49 74
54 50 84
54 51 55
54 52 86
54 53 99
55 0 43
55 1 54
55 2 26
55 3 98
55 4 51
55 5 73
55 6 13
55 7 24
55 8 70
55 9 27
55 10 13
55 11 11
55 12 66
55 13 19
55 14 99
55 15 83
55 16 28
55 17 38
55 18 73
55 19 21
55 20 72
55 21 92
55 22 13
55 23 95
55 24 57
55 25 8
55 26 74
55 27 17
55 28 68
55 29 56
55 30 9
55 31 84
55 32 29
55 33 73
55 34 12
55 35 88
55 36 60
55 37 99
55 38 66
55 39 34
55 40 98
55 41 64
55 42 70
55 43 1
55 44 28
55 45 58
55 46 75
55 47 11
55 48 5
55 49 1
55 50 38
55 51 5
55 52 69
55 53 83
55 54 2
56 0 45
56 1 67
56 2 36
56 3 36
56 4 89
56 5 55
56 6 73
56 7 96
56 8 94
56 9 24
56 10 94
56 11 7
56 12 66
56 13 78
56 14 45
56 15 68
56 16 49
56 17 77
56 18 81
56 19 13
56 20 18
56 21 97
56 22 78
56 23 16
56 24 35
56 25 79
56 26 80
56 27 91
56 28 60
56 29 76
56 30 86
56 31 34
56 32 47
56 33 17
56 34 11
56 35 21
56 36 62
56 37 35
56 38 73
56 39 45
56 40 83
56 41 46
56 42 94
56 43 54
56 44 1
56 45 71
56 46 13
56 47 34
56 48 11
56 49 19
56 50 57
56 51 47
56 52 65
56 53 8
56 54 8
56 55 5
57 0 34
57 1 62
57 2 60
57 3 60
57 4 85
57 5 17
57 6 77
57 7 25
57 8 92
57 9 47
57 10 62
57 11 63
57 12 20
57 13 55
57 14 24
57 15 8
57 16 56
57 17 19
57 18 95
57 19 2
57 20 72
57 21 80
57 22 30
57 23 73
57 24 61
57 25 8
57 26 95
57 27 72
57 28 56
57 29 86
57 30 29
57 31 51
57 32 37
57 33 99
57 34 32
57 35 57
57 36 91
57 37 14
57 38 10
57 39 63
57 40 69
57 41 93
57 42 93
57 43 71
57 44 59
57 45 78
57 46 95
57 47 43
57 48 64
57 49 20
57 50 77
57 51 65
57 52 72
57 53 72
57 54 51
57 55 38
57 56 39
58 0 43
58 1 27
58 2 44
58 3 17
58 4 93
58 5 76
58 6 50
58 7 21
58 8 17
58 9 86
58 10 36
58 11 3
58 12 40
58 13 18
58 14 56
58 15 72
58 16 36
58 17 90
58 18 81
58 19 87
58 20 29
58 21 62
58 22 70
58 23 13
58 24 39
58 25 72
58 26 75
58 27 9
58 28 92
58 29 64
58 30 80
58 31 89
58 32 1
58 33 17
58 34 20
58 35 92
58 36 85
58 37 43
58 38 32
58 39 20
58 40 81
58 41 25
58 42 42
58 43 62
58 44 76
58 45 17
58 46 86
58 47 96
58 48 59
58 49 22
58 50 12
58 51 34
58 52 57
58 53 11
58 54 19
58 55 66
58 56 29
58 57 74
59 0 30
59 1 9
59 2 19
59 3 90
59 4 1
59 5 64
59 6 83
59 7 64
59 8 16
59 9 43
59 10 61
59 11 81
59 12 17
59 13 25
59 14 44
59 15 60
59 16 68
59 17 30
59 18 61
59 19 12
59 20 63
59 21 48
59 22 95
59 23 42
59 24 16
59 25 47
59 26 78
59 27 38
59 28 88
59 29 43
59 30 58
59 31 39
59 32 53
59 33 20
59 34 15
59 35 90
59 36 8
59 37 23
59 38 70
59 39 6
59 40 61
59 41 58
59 42 21
59 43 8
59 44 69
59 45 88
59 46 3
59 47 15
59 48 5
59 49 94
59 50 47
59 51 94
59 52 79
59 53 45
59 54 85
59 55 98
59 56 34
59 57 100
59 58 36
60 0 55
60 1 94
60 2 26
60 3 64
60 4 88
60 5 44
60 6 18
60 7 84
60 8 64
60 9 65
60 10 41
60 11 75
60 12 21
60 13 45
60 14 48
60 15 17
60 16 6
60 17 45
60 18 23
60 19 51
60 20 35
60 21 98
60 22 66
60 23 49
60 24 48
60 25 59
60 26 19
60 27 29
60 28 26
60 29 47
60 30 96
60 31 54
60 32 93
60 33 25
60 34 65
60 35 7
60 36 11
60 37 29
60 38 3
60 39 18
60 40 58
60 41 47
60 42 8
60 43 98
60 44 32
60 45 78
60 46 53
60 47 4
60 48 30
60 49 54
60 50 14
60 51 29
60 52 81
60 53 95
60 54 88
60 55 2
60 56 55
60 57 16
60 58 20
60 59 39
61 0 62
61 1 29
61 2 64
61 3 85
61 4 4
61 5 96
61 6 77
61 7 23
61 8 69
61 9 19
61 10 9
61 11 55
61 12 62
61 13 92
61 14 34
61 15 77
61 16 11
61 17 38
61 18 48
61 19 97
61 20 4
61 21 5
61 22 12
61 23 81
61 24 40
61 25 4
61 26 37
61 27 11
61 28 94
61 29 1
61 30 17
61 31 93
61 32 38
61 33 3
61 34 71
61 35 67
61 36 64
61 37 100
61 38 50
61 39 79
61 40 100
61 41 58
61 42 6
61 43 33
61 44 20
61 45 55
61 46 51
61 47 42
61 48 79
61 49 27
61 50 40
61 51 20
61 52 33
61 53 63
61 54 44
61 55 6
61 56 26
61 57 47
61 58 23
61 59 6
61 60 47
62 0 62
62 1 6
62 2 88
62 3 90
62 4 89
62 5 19
62 6 76
62 7 77
62 8 62
62 9 47
62 10 19
62 11 18
62 12 79
62 13 97
62 14 38
62 15 28
62 16 62
62 17 17
62 18 70
62 19 11
62 20 26
62 21 77
62 22 64
62 23 97
62 24 1
62 25 10
62 26 13
62 27 80
62 28 7
62 29 97
62 30 96
62 31 99
62 32 91
62 33 7
62 34 91
62 35 59
62 36 62
62 37 51
62 38 78
62 39 77
62 40 91
62 41 9
62 42 27
62 43 20
62 44 57
62 45 31
62 46 62
62 47 37
62 48 62
62 49 17
62 50 33
62 51 40
62 52 43
62 53 46
62 54 36
62 55 60
62 56 52
62 57 93
62 58 69
62 59 78
62 60 86
62 61 53
63 0 18
63 1 45
63 2 80
63 3 73
63 4 95
63 5 95
63 6 5
63 7 51
63 8 84
63 9 35
63 10 35
63 11 60
63 12 71
63 13 85
63 14 61
63 15 96
63 16 54
63 17 61
63 18 78
63 19 70
63 20 58
63 21 59
63 22 69
63 23 81
63 24 12
63 25 71
63 26 67
63 27 57
63 28 60
63 29 32
63 30 60
63 31 28
63 32 96
63 33 91
63 34 74
63 35 88
63 36 72
63 37 59
63 38 57
63 39 51
63 40 2
63 41 56
63 42 31
63 43 5
63 44 64
63 45 81
63 46 8
63 47 32
63 48 72
63 49 74
63 50 64
63 51 28
63 52 73
63 53 23
63 54 33
63 55 64
63 56 96
63 57 70
63 58 61
63 59 50
63 60 37
63 61 91
63 62 26
64 0 11
64 1 88
64 2 58
64 3 26
64 4 74
64 5 22
64 6 27
64 7 72
64 8 33
64 9 91
64 10 86
64 11 64
64 12 38
64 13 10
64 14 67
64 15 16
64 16 25
64 17 40
64 18 17
64 19 58
64 20 83
64 21 68
64 22 54
64 23 51
64 24 25
64 25 63
64 26 86
64 27 72
64 28 13
64 29 72
64 30 47
64 31 60
64 32 40
64 33 44
64 34 82
64 35 43
64 36 93
64 37 34
64 38 93
64 39 68
64 40 29
64 41 11
64 42 14
64 43 13
64 44 43
64 45 64
64 46 96
64 47 56
64 48 16
64 49 97
64 50 1
64 51 31
64 52 66
64 53 39
64 54 45
64 55 83
64 56 51
64 57 24
64 58 43
64 59 10
64 60 74
64 61 13
64 62 39
64 63 68
65 0 8
65 1 56
65 2 22
65 3 50
65 4 48
65 5 29
65 6 72
65 7 84
65 8 30
65 9 80
65 10 76
65 11 7
65 12 98
65 13 78
65 14 15
65 15 8
65 16 2
65 17 52
65 18 7
65 19 44
65 20 55
65 21 49
65 22 59
65 23 83
65 24 85
65 25 68
65 26 65
65 27 14
65 28 59
65 29 33
65 30 53
65 31 40
65 32 68
65 33 14
65 34 61
65 35 33
65 36 89
65 37 23
65 38 4
65 39 29
65 40 83
65 41 27
65 42 59
65 43 83
65 44 76
65 45 61
65 46 74
65 47 10
65 48 41
65 49 36
65 50 94
65 51 100
65 52 72
65 53 77
65 54 36
65 55 54
65 56 30
65 57 23
65 58 75
65 59 3
65 60 93
65 61 87
65 62 25
65 63 2
65 64 31
66 0 55
66 1 7
66 2 99
66 3 14
66 4 73
66 5 54
66 6 37
66 7 97
66 8 41
66 9 99
66 10 29
66 11 53
66 12 26
66 13 25
66 14 15
66 15 52
66 16 59
66 17 98
66 18 96
66 19 93
66 20 73
66 21 95
66 22 100
66 23 54
66 24 6
66 25 2
66 26 27
66 27 100
66 28 62
66 29 49
66 30 70
66 31 76
66 32 21
66 33 99
66 34 25
66 35 75
66 36 33
66 37 21
66 38 22
66 39 47
66 40 29
66 41 91
66 42 47
66 43 4
66 44 48
66 45 26
66 46 41
66 47 19
66 48 58
66 49 36
66 50 77
66 51 46
66 52 10
66 53 38
66 54 81
66 55 89
66 56 76
66 57 80
66 58 25
66 59 10
66 60 33
66 61 73
66 62 5
66 63 46
66 64 9
66 65 11
67 0 12
67 1 77
67 2 8
67 3 34
67 4 27
67 5 77
67 6 66
67 7 88
67 8 1
67 9 13
67 10 15
67 11 45
67 12 27
67 13 98
67 14 51
67 15 11
67 16 92
67 17 14
67 18 37
67 19 49
67 20 65
67 21 39
67 22 88
67 23 57
67 24 73
67 25 59
67 26 14
67 27 10
67 28 61
67 29 56
67 30 24
67 31 49
67 32 42
67 33 86
67 34 5
67 35 61
67 36 81
67 37 1
67 38 49
67 39 5
67 40 69
67 41 71
67 42 80
67 43 61
67 44 84
67 45 14
67 46 93
67 47 14
67 48 41
67 49 44
67 50 31
67 51 4
67 52 79
67 53 80
67 54 44
67 55 92
67 56 43
67 57 96
67 58 13
67 59 34
67 60 44
67 61 94
67 62 33
67 63 63
67 64 25
67 65 26
67 66 87
68 0 9
68 1 50
68 2 6
68 3 51
68 4 22
68 5 1
68 6 83
68 7 17
68 8 70
68 9 49
68 10 69
68 11 30
68 12 25
68 13 32
68 14 43
68 15 56
68 16 68
68 17 66
68 18 63
68 19 50
68 20 61
68 21 49
68 22 82
68 23 80
68 24 87
68 25 61
68 26 26
68 27 19
68 28 42
68 29 56
68 30 89
68 31 27
68 32 27
68 33 92
68 34 59
68 35 72
68 36 87
68 37 67
68 38 68
68 39 72
68 40 86
68 41 37
68 42 43
68 43 44
68 44 21
68 45 36
68 46 84
68 47 7
68 48 100
68 49 35
68 50 20
68 51 66
68 52 60
68 53 7
68 54 95
68 55 70
68 56 81
68 57 75
68 58 97
68 59 34
68 60 23
68 61 66
68 62 32
68 63 60
68 64 11
68 65 6
68 66 7
68 67 96
69 0 20
69 1 15
69 2 65
69 3 15
69 4 46
69 5 98
69 6 95
69 7 17
69 8 73
69 9 35
69 10 12
69 11 72
69 12 59
69 13 16
69 14 63
69 15 61
69 16 9
69 17 83
69 18 34
69 19 85
69 20 1
69 21 57
69 22 33
69 23 49
69 24 91
69 25 79
69 26 85
69 27 37
69 28 8
69 29 91
69 30 80
69 31 39
69 32 17
69 33 20
69 34 34
69 35 97
69 36 11
69 37 64
69 38 73
69 39 75
69 40 55
69 41 79
69 42 41
69 43 77
69 44 3
69 45 13
69 46 91
69 47 62
69 48 53
69 49 49
69 50 22
69 51 35
69 52 11
69 53 41
69 54 50
69 55 11
69 56 82
69 57 61
69 58 51
69 59 76
69 60 14
69 61 93
69 62 95
69 63 6
69 64 48
69 65 37
69 66 58
69 67 1
69 68 69
